NAME: random_60_9
TYPE: TSP
COMMENT: random_60_9
DIMENSION: 60
EDGE_WEIGHT_TYPE: EUC_2D
NODE_COORD_SECTION
1 78 63
2 258 196
3 499 324
4 37 115
5 10 7
6 209 372
7 279 393
8 104 443
9 361 174
10 248 210
11 418 246
12 40 448
13 482 402
14 138 222
15 433 24
16 167 153
17 321 440
18 237 344
19 295 445
20 190 73
21 470 191
22 0 70
23 245 368
24 224 286
25 235 316
26 358 428
27 40 309
28 395 499
29 231 396
30 283 271
31 30 374
32 266 121
33 176 361
34 436 417
35 104 126
36 380 169
37 192 41
38 348 113
39 499 466
40 410 182
41 107 253
42 444 223
43 140 225
44 200 54
45 143 420
46 309 130
47 372 196
48 369 243
49 2 12
50 123 281
51 343 316
52 406 162
53 483 407
54 17 435
55 61 126
56 267 190
57 417 432
58 45 191
59 82 140
60 390 299
